
Gurobi 8.1.1 (mac64, Python) logging started Thu Jul 25 16:00:01 2019

Academic license - for non-commercial use only
Changed value of parameter Seed to 666
   Prev: 0  Min: 0  Max: 2000000000  Default: 0
Changed value of parameter Method to 1
   Prev: -1  Min: -1  Max: 5  Default: -1
Changed value of parameter NumericFocus to 3
   Prev: 0  Min: 0  Max: 3  Default: 0
Changed value of parameter LogToConsole to 0
   Prev: 1  Min: 0  Max: 1  Default: 1
Optimize a model with 265 rows, 118 columns and 557 nonzeros
Variable types: 0 continuous, 118 integer (118 binary)
Coefficient statistics:
  Matrix range     [1e+00, 1e+03]
  Objective range  [5e-01, 5e-01]
  Bounds range     [1e+00, 1e+00]
  RHS range        [1e+00, 1e+03]
Found heuristic solution: objective -0.0000000
Presolve removed 237 rows and 102 columns
Presolve time: 0.00s
Presolved: 28 rows, 16 columns, 68 nonzeros
Found heuristic solution: objective 20.0000000
Variable types: 0 continuous, 16 integer (16 binary)

Root relaxation: cutoff, 0 iterations, 0.00 seconds

Explored 0 nodes (0 simplex iterations) in 0.00 seconds
Thread count was 8 (of 8 available processors)

Solution count 2: 20 17 

Optimal solution found (tolerance 1.00e-04)
Best objective 2.000000000000e+01, best bound 2.000000000000e+01, gap 0.0000%
Parameter solutionNumber unchanged
   Value: 0  Min: 0  Max: 2000000000  Default: 0
Changed value of parameter solutionNumber to 1
   Prev: 0  Min: 0  Max: 2000000000  Default: 0
